peakDumbCharging = 14800; 
Machine = anon_enum(16); 
machineSpeed = [3700,3700,3700,3700,3700,3700,3700,3700,3700,3700,3700,3700,3700,3700,3700,3700]; 
machineLoad = [3700,3700,3700,3700,3700,3700,3700,3700,3700,3700,3700,3700,3700,3700,3700,3700]; 
Car = anon_enum(17); 
demandCar = [1320,16760,15640,20040,18200,2760,3600,4840,3280,6040,11320,40,8240,4280,1080,3800,1360]; 
arrivalCar = [67,58,55,51,50,49,49,47,46,45,43,40,39,38,37,35,33]; 
departureCar = [68,64,61,58,56,52,51,50,48,53,47,43,43,42,39,37,35]; 
